p tw 111 121
1 2
2 24
3 14
4 5
5 6
6 7
7 8
8 9
9 10
10 11
11 12
12 86
13 15
14 16
16 17
17 18
18 19
19 20
20 21
20 28
21 22
22 23
23 25
24 35
25 26
26 27
27 28
28 29
29 30
30 31
31 32
32 33
33 34
34 36
35 46
36 37
37 38
38 39
39 40
40 41
41 42
42 43
43 44
44 45
45 47
45 83
46 57
47 48
48 49
48 53
49 50
50 51
51 52
52 53
53 54
54 55
55 56
56 58
57 68
57 28
58 59
59 60
60 61
61 62
62 63
63 64
64 65
65 66
66 67
66 33
67 69
68 79
69 70
70 71
71 72
71 33
72 73
73 74
74 75
75 76
76 77
77 78
78 80
79 90
80 81
81 82
82 33
83 84
84 85
85 86
86 87
87 88
88 89
89 91
90 101
91 92
92 93
92 105
93 94
94 95
95 96
96 97
96 102
97 98
98 99
99 100
100 102
100 105
101 3
102 103
103 104
104 89
105 106
106 107
106 13
107 108
108 109
108 111
109 110
110 111
111 4
